p cnf 266 1306
119 124 0
70 81 114 0
93 99 112 0
17 88 105 0
35 52 54 116 0
90 97 127 156 179 0
83 133 182 0
107 144 0
78 121 136 226 0
115 132 265 0
101 139 147 186 188 0
102 148 0
85 149 151 0
118 128 153 158 0
28 159 160 0
96 162 0
120 122 123 137 163 164 0
76 77 130 165 0
73 92 98 138 143 0
62 65 66 0
18 59 60 86 89 0
51 53 110 126 0
34 47 49 50 0
42 152 0
71 141 0
41 63 91 0
40 55 57 0
36 45 0
29 31 0
26 27 82 161 0
20 21 23 25 95 0
19 75 79 0
68 74 146 0
69 80 109 125 0
33 111 0
14 15 44 217 0
8 9 11 12 104 0
7 166 0
43 167 168 169 0
172 173 174 177 0
155 178 180 0
72 134 181 183 0
94 106 140 142 145 0
184 185 187 189 0
37 46 191 192 224 0
193 194 195 262 0
198 201 203 257 0
30 38 205 0
-88 -124 0
-116 -124 0
-124 -206 0
-124 -208 0
-88 -116 0
-88 -206 0
-88 -208 0
-116 -206 0
-116 -208 0
-206 -208 0
-24 -66 0
-24 -60 0
-24 -34 0
-24 -210 0
-60 -66 0
-34 -66 0
-66 -210 0
-34 -60 0
-60 -210 0
-34 -210 0
-91 -212 0
-91 -213 0
-91 -150 0
-91 -154 0
-212 -213 0
-150 -212 0
-154 -212 0
-150 -213 0
-154 -213 0
-150 -154 0
-44 -215 0
-44 -172 0
-44 -178 0
-44 -216 0
-172 -215 0
-178 -215 0
-215 -216 0
-172 -178 0
-172 -216 0
-178 -216 0
-181 -184 0
-37 -181 0
-181 -198 0
-38 -181 0
-37 -184 0
-184 -198 0
-38 -184 0
-37 -198 0
-37 -38 0
-38 -198 0
-24 -124 0
-91 -124 0
-44 -124 0
-124 -181 0
-24 -91 0
-24 -44 0
-24 -181 0
-44 -91 0
-91 -181 0
-44 -181 0
-66 -88 0
-88 -212 0
-88 -215 0
-88 -184 0
-66 -212 0
-66 -215 0
-66 -184 0
-212 -215 0
-184 -212 0
-184 -215 0
-60 -116 0
-116 -213 0
-116 -172 0
-37 -116 0
-60 -213 0
-60 -172 0
-37 -60 0
-172 -213 0
-37 -213 0
-37 -172 0
-34 -206 0
-150 -206 0
-178 -206 0
-198 -206 0
-34 -150 0
-34 -178 0
-34 -198 0
-150 -178 0
-150 -198 0
-178 -198 0
-208 -210 0
-154 -208 0
-208 -216 0
-38 -208 0
-154 -210 0
-210 -216 0
-38 -210 0
-154 -216 0
-38 -154 0
-38 -216 0
-112 -114 0
-114 -218 0
-13 -114 0
-112 -218 0
-13 -112 0
-13 -218 0
-97 -232 0
-97 -182 0
-97 -139 0
-182 -232 0
-139 -232 0
-139 -182 0
-163 -165 0
-73 -163 0
-50 -163 0
-73 -165 0
-50 -165 0
-50 -73 0
-64 -142 0
-58 -142 0
-142 -201 0
-58 -64 0
-64 -201 0
-58 -201 0
-97 -114 0
-114 -163 0
-114 -142 0
-97 -163 0
-97 -142 0
-142 -163 0
-112 -232 0
-112 -165 0
-64 -112 0
-165 -232 0
-64 -232 0
-64 -165 0
-182 -218 0
-73 -218 0
-58 -218 0
-73 -182 0
-58 -182 0
-58 -73 0
-13 -139 0
-13 -50 0
-13 -201 0
-50 -139 0
-139 -201 0
-50 -201 0
-70 -119 0
-99 -119 0
-119 -220 0
-54 -119 0
-48 -119 0
-119 -221 0
-70 -99 0
-70 -220 0
-54 -70 0
-48 -70 0
-70 -221 0
-99 -220 0
-54 -99 0
-48 -99 0
-99 -221 0
-54 -220 0
-48 -220 0
-220 -221 0
-48 -54 0
-54 -221 0
-48 -221 0
-90 -222 0
-222 -223 0
-83 -222 0
-222 -226 0
-115 -222 0
-222 -225 0
-90 -223 0
-83 -90 0
-90 -226 0
-90 -115 0
-90 -225 0
-83 -223 0
-223 -226 0
-115 -223 0
-223 -225 0
-83 -226 0
-83 -115 0
-83 -225 0
-115 -226 0
-225 -226 0
-115 -225 0
-22 -164 0
-22 -76 0
-22 -138 0
-22 -86 0
-22 -110 0
-16 -22 0
-76 -164 0
-138 -164 0
-86 -164 0
-110 -164 0
-16 -164 0
-76 -138 0
-76 -86 0
-76 -110 0
-16 -76 0
-86 -138 0
-110 -138 0
-16 -138 0
-86 -110 0
-16 -86 0
-16 -110 0
-10 -228 0
-10 -42 0
-10 -157 0
-10 -229 0
-10 -108 0
-10 -71 0
-42 -228 0
-157 -228 0
-228 -229 0
-108 -228 0
-71 -228 0
-42 -157 0
-42 -229 0
-42 -108 0
-42 -71 0
-157 -229 0
-108 -157 0
-71 -157 0
-108 -229 0
-71 -229 0
-71 -108 0
-25 -27 0
-27 -231 0
-19 -27 0
-27 -113 0
-27 -219 0
-27 -111 0
-25 -231 0
-19 -25 0
-25 -113 0
-25 -219 0
-25 -111 0
-19 -231 0
-113 -231 0
-219 -231 0
-111 -231 0
-19 -113 0
-19 -219 0
-19 -111 0
-113 -219 0
-111 -113 0
-111 -219 0
-12 -217 0
-7 -217 0
-167 -217 0
-173 -217 0
-84 -217 0
-217 -233 0
-7 -12 0
-12 -167 0
-12 -173 0
-12 -84 0
-12 -233 0
-7 -167 0
-7 -173 0
-7 -84 0
-7 -233 0
-167 -173 0
-84 -167 0
-167 -233 0
-84 -173 0
-173 -233 0
-84 -233 0
-140 -183 0
-183 -234 0
-183 -235 0
-183 -191 0
-183 -193 0
-183 -205 0
-140 -234 0
-140 -235 0
-140 -191 0
-140 -193 0
-140 -205 0
-234 -235 0
-191 -234 0
-193 -234 0
-205 -234 0
-191 -235 0
-193 -235 0
-205 -235 0
-191 -193 0
-191 -205 0
-193 -205 0
-119 -222 0
-22 -119 0
-10 -119 0
-27 -119 0
-119 -217 0
-119 -183 0
-22 -222 0
-10 -222 0
-27 -222 0
-217 -222 0
-183 -222 0
-10 -22 0
-22 -27 0
-22 -217 0
-22 -183 0
-10 -27 0
-10 -217 0
-10 -183 0
-27 -217 0
-27 -183 0
-183 -217 0
-70 -90 0
-70 -164 0
-70 -228 0
-25 -70 0
-12 -70 0
-70 -140 0
-90 -164 0
-90 -228 0
-25 -90 0
-12 -90 0
-90 -140 0
-164 -228 0
-25 -164 0
-12 -164 0
-140 -164 0
-25 -228 0
-12 -228 0
-140 -228 0
-12 -25 0
-25 -140 0
-12 -140 0
-99 -223 0
-76 -99 0
-42 -99 0
-99 -231 0
-7 -99 0
-99 -234 0
-76 -223 0
-42 -223 0
-223 -231 0
-7 -223 0
-223 -234 0
-42 -76 0
-76 -231 0
-7 -76 0
-76 -234 0
-42 -231 0
-7 -42 0
-42 -234 0
-7 -231 0
-231 -234 0
-7 -234 0
-83 -220 0
-138 -220 0
-157 -220 0
-19 -220 0
-167 -220 0
-220 -235 0
-83 -138 0
-83 -157 0
-19 -83 0
-83 -167 0
-83 -235 0
-138 -157 0
-19 -138 0
-138 -167 0
-138 -235 0
-19 -157 0
-157 -167 0
-157 -235 0
-19 -167 0
-19 -235 0
-167 -235 0
-54 -226 0
-54 -86 0
-54 -229 0
-54 -113 0
-54 -173 0
-54 -191 0
-86 -226 0
-226 -229 0
-113 -226 0
-173 -226 0
-191 -226 0
-86 -229 0
-86 -113 0
-86 -173 0
-86 -191 0
-113 -229 0
-173 -229 0
-191 -229 0
-113 -173 0
-113 -191 0
-173 -191 0
-48 -115 0
-48 -110 0
-48 -108 0
-48 -219 0
-48 -84 0
-48 -193 0
-110 -115 0
-108 -115 0
-115 -219 0
-84 -115 0
-115 -193 0
-108 -110 0
-110 -219 0
-84 -110 0
-110 -193 0
-108 -219 0
-84 -108 0
-108 -193 0
-84 -219 0
-193 -219 0
-84 -193 0
-221 -225 0
-16 -221 0
-71 -221 0
-111 -221 0
-221 -233 0
-205 -221 0
-16 -225 0
-71 -225 0
-111 -225 0
-225 -233 0
-205 -225 0
-16 -71 0
-16 -111 0
-16 -233 0
-16 -205 0
-71 -111 0
-71 -233 0
-71 -205 0
-111 -233 0
-111 -205 0
-205 -233 0
-93 -105 0
-52 -93 0
-93 -242 0
-52 -105 0
-105 -242 0
-52 -242 0
-144 -176 0
-121 -176 0
-176 -186 0
-121 -144 0
-144 -186 0
-121 -186 0
-68 -236 0
-100 -236 0
-69 -236 0
-68 -100 0
-68 -69 0
-69 -100 0
-185 -227 0
-224 -227 0
-203 -227 0
-185 -224 0
-185 -203 0
-203 -224 0
-93 -176 0
-93 -236 0
-93 -227 0
-176 -236 0
-176 -227 0
-227 -236 0
-105 -144 0
-68 -105 0
-105 -185 0
-68 -144 0
-144 -185 0
-68 -185 0
-52 -121 0
-52 -100 0
-52 -224 0
-100 -121 0
-121 -224 0
-100 -224 0
-186 -242 0
-69 -242 0
-203 -242 0
-69 -186 0
-186 -203 0
-69 -203 0
-61 -81 0
-17 -81 0
-35 -81 0
-81 -211 0
-81 -238 0
-17 -61 0
-35 -61 0
-61 -211 0
-61 -238 0
-17 -35 0
-17 -211 0
-17 -238 0
-35 -211 0
-35 -238 0
-211 -238 0
-214 -239 0
-239 -240 0
-149 -239 0
-153 -239 0
-96 -239 0
-214 -240 0
-149 -214 0
-153 -214 0
-96 -214 0
-149 -240 0
-153 -240 0
-96 -240 0
-149 -153 0
-96 -149 0
-96 -153 0
-122 -143 0
-65 -122 0
-59 -122 0
-122 -126 0
-122 -241 0
-65 -143 0
-59 -143 0
-126 -143 0
-143 -241 0
-59 -65 0
-65 -126 0
-65 -241 0
-59 -126 0
-59 -241 0
-126 -241 0
-36 -40 0
-40 -103 0
-40 -199 0
-31 -40 0
-40 -129 0
-36 -103 0
-36 -199 0
-31 -36 0
-36 -129 0
-103 -199 0
-31 -103 0
-103 -129 0
-31 -199 0
-129 -199 0
-31 -129 0
-104 -168 0
-104 -243 0
-104 -174 0
-104 -244 0
-104 -175 0
-168 -243 0
-168 -174 0
-168 -244 0
-168 -175 0
-174 -243 0
-243 -244 0
-175 -243 0
-174 -244 0
-174 -175 0
-175 -244 0
-56 -145 0
-145 -187 0
-46 -145 0
-145 -194 0
-30 -145 0
-56 -187 0
-46 -56 0
-56 -194 0
-30 -56 0
-46 -187 0
-187 -194 0
-30 -187 0
-46 -194 0
-30 -46 0
-30 -194 0
-81 -239 0
-81 -122 0
-40 -81 0
-81 -104 0
-81 -145 0
-122 -239 0
-40 -239 0
-104 -239 0
-145 -239 0
-40 -122 0
-104 -122 0
-122 -145 0
-40 -104 0
-40 -145 0
-104 -145 0
-61 -214 0
-61 -143 0
-36 -61 0
-61 -168 0
-56 -61 0
-143 -214 0
-36 -214 0
-168 -214 0
-56 -214 0
-36 -143 0
-143 -168 0
-56 -143 0
-36 -168 0
-36 -56 0
-56 -168 0
-17 -240 0
-17 -65 0
-17 -103 0
-17 -243 0
-17 -187 0
-65 -240 0
-103 -240 0
-240 -243 0
-187 -240 0
-65 -103 0
-65 -243 0
-65 -187 0
-103 -243 0
-103 -187 0
-187 -243 0
-35 -149 0
-35 -59 0
-35 -199 0
-35 -174 0
-35 -46 0
-59 -149 0
-149 -199 0
-149 -174 0
-46 -149 0
-59 -199 0
-59 -174 0
-46 -59 0
-174 -199 0
-46 -199 0
-46 -174 0
-153 -211 0
-126 -211 0
-31 -211 0
-211 -244 0
-194 -211 0
-126 -153 0
-31 -153 0
-153 -244 0
-153 -194 0
-31 -126 0
-126 -244 0
-126 -194 0
-31 -244 0
-31 -194 0
-194 -244 0
-96 -238 0
-238 -241 0
-129 -238 0
-175 -238 0
-30 -238 0
-96 -241 0
-96 -129 0
-96 -175 0
-30 -96 0
-129 -241 0
-175 -241 0
-30 -241 0
-129 -175 0
-30 -129 0
-30 -175 0
-179 -260 0
-245 -260 0
-78 -260 0
-147 -260 0
-246 -260 0
-179 -245 0
-78 -179 0
-147 -179 0
-179 -246 0
-78 -245 0
-147 -245 0
-245 -246 0
-78 -147 0
-78 -246 0
-147 -246 0
-247 -248 0
-148 -247 0
-151 -247 0
-159 -247 0
-162 -247 0
-148 -248 0
-151 -248 0
-159 -248 0
-162 -248 0
-148 -151 0
-148 -159 0
-148 -162 0
-151 -159 0
-151 -162 0
-159 -162 0
-123 -249 0
-77 -249 0
-89 -249 0
-49 -249 0
-207 -249 0
-77 -123 0
-89 -123 0
-49 -123 0
-123 -207 0
-77 -89 0
-49 -77 0
-77 -207 0
-49 -89 0
-89 -207 0
-49 -207 0
-209 -250 0
-152 -209 0
-209 -251 0
-209 -252 0
-141 -209 0
-152 -250 0
-250 -251 0
-250 -252 0
-141 -250 0
-152 -251 0
-152 -252 0
-141 -152 0
-251 -252 0
-141 -251 0
-141 -252 0
-57 -63 0
-63 -253 0
-63 -202 0
-63 -254 0
-63 -255 0
-57 -253 0
-57 -202 0
-57 -254 0
-57 -255 0
-202 -253 0
-253 -254 0
-253 -255 0
-202 -254 0
-202 -255 0
-254 -255 0
-23 -82 0
-82 -256 0
-67 -82 0
-80 -82 0
-33 -82 0
-23 -256 0
-23 -67 0
-23 -80 0
-23 -33 0
-67 -256 0
-80 -256 0
-33 -256 0
-67 -80 0
-33 -67 0
-33 -80 0
-247 -260 0
-249 -260 0
-209 -260 0
-63 -260 0
-82 -260 0
-247 -249 0
-209 -247 0
-63 -247 0
-82 -247 0
-209 -249 0
-63 -249 0
-82 -249 0
-63 -209 0
-82 -209 0
-63 -82 0
-179 -248 0
-123 -179 0
-179 -250 0
-57 -179 0
-23 -179 0
-123 -248 0
-248 -250 0
-57 -248 0
-23 -248 0
-123 -250 0
-57 -123 0
-23 -123 0
-57 -250 0
-23 -250 0
-23 -57 0
-148 -245 0
-77 -245 0
-152 -245 0
-245 -253 0
-245 -256 0
-77 -148 0
-148 -152 0
-148 -253 0
-148 -256 0
-77 -152 0
-77 -253 0
-77 -256 0
-152 -253 0
-152 -256 0
-253 -256 0
-78 -151 0
-78 -89 0
-78 -251 0
-78 -202 0
-67 -78 0
-89 -151 0
-151 -251 0
-151 -202 0
-67 -151 0
-89 -251 0
-89 -202 0
-67 -89 0
-202 -251 0
-67 -251 0
-67 -202 0
-147 -159 0
-49 -147 0
-147 -252 0
-147 -254 0
-80 -147 0
-49 -159 0
-159 -252 0
-159 -254 0
-80 -159 0
-49 -252 0
-49 -254 0
-49 -80 0
-252 -254 0
-80 -252 0
-80 -254 0
-162 -246 0
-207 -246 0
-141 -246 0
-246 -255 0
-33 -246 0
-162 -207 0
-141 -162 0
-162 -255 0
-33 -162 0
-141 -207 0
-207 -255 0
-33 -207 0
-141 -255 0
-33 -141 0
-33 -255 0
-107 -156 0
-156 -265 0
-101 -156 0
-107 -265 0
-101 -107 0
-101 -265 0
-204 -258 0
-118 -258 0
-28 -258 0
-118 -204 0
-28 -204 0
-28 -118 0
-74 -95 0
-95 -259 0
-95 -125 0
-74 -259 0
-74 -125 0
-125 -259 0
-11 -117 0
-11 -261 0
-11 -180 0
-117 -261 0
-117 -180 0
-180 -261 0
-156 -258 0
-95 -156 0
-11 -156 0
-95 -258 0
-11 -258 0
-11 -95 0
-107 -204 0
-74 -107 0
-107 -117 0
-74 -204 0
-117 -204 0
-74 -117 0
-118 -265 0
-259 -265 0
-261 -265 0
-118 -259 0
-118 -261 0
-259 -261 0
-28 -101 0
-101 -125 0
-101 -180 0
-28 -125 0
-28 -180 0
-125 -180 0
-127 -171 0
-133 -171 0
-136 -171 0
-132 -171 0
-171 -188 0
-127 -133 0
-127 -136 0
-127 -132 0
-127 -188 0
-133 -136 0
-132 -133 0
-133 -188 0
-132 -136 0
-136 -188 0
-132 -188 0
-190 -263 0
-196 -263 0
-85 -263 0
-158 -263 0
-160 -263 0
-190 -196 0
-85 -190 0
-158 -190 0
-160 -190 0
-85 -196 0
-158 -196 0
-160 -196 0
-85 -158 0
-85 -160 0
-158 -160 0
-120 -237 0
-98 -237 0
-18 -237 0
-53 -237 0
-47 -237 0
-98 -120 0
-18 -120 0
-53 -120 0
-47 -120 0
-18 -98 0
-53 -98 0
-47 -98 0
-18 -53 0
-18 -47 0
-47 -53 0
-21 -161 0
-75 -161 0
-161 -264 0
-87 -161 0
-109 -161 0
-21 -75 0
-21 -264 0
-21 -87 0
-21 -109 0
-75 -264 0
-75 -87 0
-75 -109 0
-87 -264 0
-109 -264 0
-87 -109 0
-9 -15 0
-15 -43 0
-15 -177 0
-15 -230 0
-15 -155 0
-9 -43 0
-9 -177 0
-9 -230 0
-9 -155 0
-43 -177 0
-43 -230 0
-43 -155 0
-177 -230 0
-155 -177 0
-155 -230 0
-72 -106 0
-72 -266 0
-72 -192 0
-72 -195 0
-72 -257 0
-106 -266 0
-106 -192 0
-106 -195 0
-106 -257 0
-192 -266 0
-195 -266 0
-257 -266 0
-192 -195 0
-192 -257 0
-195 -257 0
-171 -263 0
-171 -237 0
-161 -171 0
-15 -171 0
-72 -171 0
-237 -263 0
-161 -263 0
-15 -263 0
-72 -263 0
-161 -237 0
-15 -237 0
-72 -237 0
-15 -161 0
-72 -161 0
-15 -72 0
-127 -190 0
-120 -127 0
-21 -127 0
-9 -127 0
-106 -127 0
-120 -190 0
-21 -190 0
-9 -190 0
-106 -190 0
-21 -120 0
-9 -120 0
-106 -120 0
-9 -21 0
-21 -106 0
-9 -106 0
-133 -196 0
-98 -133 0
-75 -133 0
-43 -133 0
-133 -266 0
-98 -196 0
-75 -196 0
-43 -196 0
-196 -266 0
-75 -98 0
-43 -98 0
-98 -266 0
-43 -75 0
-75 -266 0
-43 -266 0
-85 -136 0
-18 -136 0
-136 -264 0
-136 -177 0
-136 -192 0
-18 -85 0
-85 -264 0
-85 -177 0
-85 -192 0
-18 -264 0
-18 -177 0
-18 -192 0
-177 -264 0
-192 -264 0
-177 -192 0
-132 -158 0
-53 -132 0
-87 -132 0
-132 -230 0
-132 -195 0
-53 -158 0
-87 -158 0
-158 -230 0
-158 -195 0
-53 -87 0
-53 -230 0
-53 -195 0
-87 -230 0
-87 -195 0
-195 -230 0
-160 -188 0
-47 -188 0
-109 -188 0
-155 -188 0
-188 -257 0
-47 -160 0
-109 -160 0
-155 -160 0
-160 -257 0
-47 -109 0
-47 -155 0
-47 -257 0
-109 -155 0
-109 -257 0
-155 -257 0
-39 -197 0
-102 -197 0
-197 -200 0
-32 -197 0
-128 -197 0
-39 -102 0
-39 -200 0
-32 -39 0
-39 -128 0
-102 -200 0
-32 -102 0
-102 -128 0
-32 -200 0
-128 -200 0
-32 -128 0
-6 -137 0
-6 -130 0
-6 -92 0
-6 -62 0
-6 -51 0
-130 -137 0
-92 -137 0
-62 -137 0
-51 -137 0
-92 -130 0
-62 -130 0
-51 -130 0
-62 -92 0
-51 -92 0
-51 -62 0
-41 -55 0
-5 -41 0
-41 -45 0
-4 -41 0
-29 -41 0
-5 -55 0
-45 -55 0
-4 -55 0
-29 -55 0
-5 -45 0
-4 -5 0
-5 -29 0
-4 -45 0
-29 -45 0
-4 -29 0
-20 -26 0
-3 -26 0
-26 -79 0
-26 -146 0
-2 -26 0
-3 -20 0
-20 -79 0
-20 -146 0
-2 -20 0
-3 -79 0
-3 -146 0
-2 -3 0
-79 -146 0
-2 -79 0
-2 -146 0
-8 -14 0
-14 -166 0
-14 -169 0
-1 -14 0
-14 -170 0
-8 -166 0
-8 -169 0
-1 -8 0
-8 -170 0
-166 -169 0
-1 -166 0
-166 -170 0
-1 -169 0
-169 -170 0
-1 -170 0
-94 -134 0
-134 -135 0
-131 -134 0
-134 -189 0
-134 -262 0
-94 -135 0
-94 -131 0
-94 -189 0
-94 -262 0
-131 -135 0
-135 -189 0
-135 -262 0
-131 -189 0
-131 -262 0
-189 -262 0
-6 -197 0
-41 -197 0
-26 -197 0
-14 -197 0
-134 -197 0
-6 -41 0
-6 -26 0
-6 -14 0
-6 -134 0
-26 -41 0
-14 -41 0
-41 -134 0
-14 -26 0
-26 -134 0
-14 -134 0
-39 -137 0
-39 -55 0
-20 -39 0
-8 -39 0
-39 -94 0
-55 -137 0
-20 -137 0
-8 -137 0
-94 -137 0
-20 -55 0
-8 -55 0
-55 -94 0
-8 -20 0
-20 -94 0
-8 -94 0
-102 -130 0
-5 -102 0
-3 -102 0
-102 -166 0
-102 -135 0
-5 -130 0
-3 -130 0
-130 -166 0
-130 -135 0
-3 -5 0
-5 -166 0
-5 -135 0
-3 -166 0
-3 -135 0
-135 -166 0
-92 -200 0
-45 -200 0
-79 -200 0
-169 -200 0
-131 -200 0
-45 -92 0
-79 -92 0
-92 -169 0
-92 -131 0
-45 -79 0
-45 -169 0
-45 -131 0
-79 -169 0
-79 -131 0
-131 -169 0
-32 -62 0
-4 -32 0
-32 -146 0
-1 -32 0
-32 -189 0
-4 -62 0
-62 -146 0
-1 -62 0
-62 -189 0
-4 -146 0
-1 -4 0
-4 -189 0
-1 -146 0
-146 -189 0
-1 -189 0
-51 -128 0
-29 -128 0
-2 -128 0
-128 -170 0
-128 -262 0
-29 -51 0
-2 -51 0
-51 -170 0
-51 -262 0
-2 -29 0
-29 -170 0
-29 -262 0
-2 -170 0
-2 -262 0
-170 -262 0
